[[16, 63, 49, 24, 23, 56, 43, 41, 42, 64, 22, 28, 62, 73, 33, 2, 6, 68, 75, 4, 30, 48, 74, 21, 61, 47, 69, 36, 71, 60, 70, 20, 37, 5, 15, 57, 13, 29, 45, 27, 52, 34], [46, 8, 54, 19, 14, 59, 11, 66, 65, 38, 53, 35, 7, 67, 76, 26, 17, 40, 12, 39, 72, 58, 10, 31, 9, 25, 55, 18, 50, 32, 44, 3, 51]]